38
75
52	7
51	8
50	15
49	12
48	9
47	11
46	9
45	6
44	6
43	12
42	5
41	7
40	9
39	11
38	14
37	8
36	12
35	9
34	17
33	10
32	11
31	8
30	8
29	16
28	14
27	8
26	13
25	12
24	19
23	11
22	10
21	13
20	9
19	7
18	14
17	9
16	10
15	11
